(set-logic HORN)
(declare-fun inv ((_ BitVec 8) (_ BitVec 8) (_ BitVec 8) (_ BitVec 8) (_ BitVec 8) (_ BitVec 8) (_ BitVec 8) ) Bool)
(assert (forall ((x (_ BitVec 8)) (y (_ BitVec 8)) (k (_ BitVec 8)) (j (_ BitVec 8)) (i (_ BitVec 8)) (n (_ BitVec 8)) (m (_ BitVec 8))) 
       (=> ( and ( = ( bvadd x y ) k ) ( = m (_ bv0 8) ) ( = j (_ bv0 8) ) ) (inv x y k j i n m))))
(assert (forall ((x (_ BitVec 8)) (y (_ BitVec 8)) (k (_ BitVec 8)) (j (_ BitVec 8)) (i (_ BitVec 8)) (n (_ BitVec 8)) (m (_ BitVec 8)) (x! (_ BitVec 8)) (y! (_ BitVec 8)) (k! (_ BitVec 8)) (j! (_ BitVec 8)) (i! (_ BitVec 8)) (n! (_ BitVec 8)) (m! (_ BitVec 8))) 
       (=> (and (inv x y k j i n m) ( or ( and ( bvslt j n ) ( = j i ) ( = x! ( bvadd x (_ bv1 8) ) ) ( = y! ( bvsub y (_ bv1 8) ) ) ( = k! k ) ( = j! ( bvadd j (_ bv1 8) ) ) ( = i! i ) ( = n! n ) ( = m! m ) ) ( and ( bvslt j n ) ( = j i ) ( = x! ( bvadd x (_ bv1 8) ) ) ( = y! ( bvsub y (_ bv1 8) ) ) ( = k! k ) ( = j! ( bvadd j (_ bv1 8) ) ) ( = i! i ) ( = n! n ) ( = m! j ) ) ( and ( bvslt j n ) ( not ( = j i ) ) ( = x! ( bvsub x (_ bv1 8) ) ) ( = y! ( bvadd y (_ bv1 8) ) ) ( = k! k ) ( = j! ( bvadd j (_ bv1 8) ) ) ( = i! i ) ( = n! n ) ( = m! m ) ) ( and ( bvslt j n ) ( not ( = j i ) ) ( = x! ( bvsub x (_ bv1 8) ) ) ( = y! ( bvadd y (_ bv1 8) ) ) ( = k! k ) ( = j! ( bvadd j (_ bv1 8) ) ) ( = i! i ) ( = n! n ) ( = m! j ) ) ( and ( bvsge j n ) ( = x! x ) ( = y! y ) ( = k! k ) ( = j! j ) ( = i! i ) ( = n! n ) ( = m! m ) ) )) (inv x! y! k! j! i! n! m!))))
(assert (forall ((x (_ BitVec 8)) (y (_ BitVec 8)) (k (_ BitVec 8)) (j (_ BitVec 8)) (i (_ BitVec 8)) (n (_ BitVec 8)) (m (_ BitVec 8))) 
       (=> (inv x y k j i n m) ( => ( bvsge j n ) ( and ( = ( bvadd x y ) k ) ( or ( bvsle n (_ bv0 8) ) ( bvsle (_ bv0 8) m ) ) ( or ( bvsle n (_ bv0 8) ) ( bvsle m n ) ) ) ))))
(check-sat)
